robust/generate/spp_dkp_Lefebvre_et_al_2026/src/shortest_path_8_3.kp
45
221

[4.75 2.64 1.35 0.37 2.14 2.27 0.23 0.78 0.56 3.01 4.11 3.12 4.76 2.26 2.97 1.36 4.69 3.23 2.12 1.39 2.45 0.54 1.09 2.3 1.17 1.86 3.93 0.36 4.44 1.08 3.39 0.53 2.89 1.95 4.02 1.2 2.2 2.68 1.21 0.53 3.49 1.49 3.97 2.17 0.45 4.26]

[95 88 12 76 14 58 23 38 32 19 93 67 57 55 67 49 41 8 58 96 3 73 91 73 48 45 88 92 56 61 48 82 41 48 4 36 33 100 70 47 13 99 67 9 36 22]
